# 65546
param n := 20;
param s := 1;
set E :=  (0,1) (1,4) (1,14) (2,14) (3,12) (3,13) (3,14) (4,12) (5,14) (5,18) (6,7) (6,15) (6,16) (7,9) (7,10) (8,13) (8,14) (10,11) (11,14) (13,19) (14,17) (16,18);
